peakDumbCharging = 11100; 
Machine = anon_enum(16); 
machineSpeed = [3700,3700,3700,3700,3700,3700,3700,3700,3700,3700,3700,3700,3700,3700,3700,3700]; 
machineLoad = [3700,3700,3700,3700,3700,3700,3700,3700,3700,3700,3700,3700,3700,3700,3700,3700]; 
Car = anon_enum(9); 
demandCar = [6840,20600,2840,16760,7560,22320,7320,4880,28600]; 
arrivalCar = [69,68,68,60,60,48,48,44,43]; 
departureCar = [73,76,71,66,63,55,51,46,60]; 
